c Random generated cnf formula, satisfiable: false
p cnf 10 50
-1 5 10 0
10 -4 -7 0
-6 1 -5 0
-2 5 3 0
-7 9 -2 0
-6 -3 5 0
1 -2 -3 0
-5 -8 -1 0
-1 -7 2 0
-2 4 -7 0
-9 -10 -4 0
-4 -5 2 0
-9 -7 -2 0
-8 6 -5 0
-1 9 5 0
9 1 -6 0
3 -7 -9 0
-7 1 10 0
8 -4 1 0
4 -9 -10 0
-3 8 5 0
3 9 -1 0
7 10 1 0
7 -5 3 0
5 -4 6 0
2 -7 4 0
10 4 5 0
-8 4 -5 0
-5 3 9 0
-10 -3 9 0
-8 5 -7 0
10 -3 8 0
4 3 -10 0
-1 -4 -2 0
-5 -7 -6 0
1 -7 2 0
-8 -1 -9 0
-8 -10 -9 0
4 9 2 0
-9 -7 -2 0
-9 4 7 0
-3 4 -10 0
-2 3 6 0
-4 5 1 0
9 1 -6 0
-7 -10 -3 0
-3 -8 -4 0
1 -4 6 0
6 7 -9 0
-5 -7 3 0
